
  22    4
  10   10   10   10

   0   0   0   0   0   3 2 3 4 
   4  10  10  10  10   4 11 10 6 5 
   8  10  10  10  10   5 14 12 11 10 8 
   3  10  10  10  10   4 14 11 8 7 
   2  10  10  10  10   3 14 8 7 
   5  10  10  10  10   3 14 12 8 
   7  10  10  10  10   3 13 12 9 
   4  10  10  10  10   2 13 9 
   8  10  10  10  10   3 17 16 15 
   4  10  10  10  10   3 17 16 15 
   9  10  10  10  10   2 17 13 
   6  10  10  10  10   2 17 16 
   4  10  10  10  10   3 21 18 16 
   6  10  10  10  10   3 21 18 16 
   4  10  10  10  10   3 20 19 18 
   2  10  10  10  10   2 20 19 
   3  10  10  10  10   2 21 18 
   1  10  10  10  10   1 22
   4  10  10  10  10   1 22
   8  10  10  10  10   1 22
   5  10  10  10  10   1 22
   0   0   0   0   0   0 
